p td 22 84
3 2
3 1
4 2
4 3
4 1
5 3
5 2
6 2
6 3
7 2
8 7
9 6
9 4
10 8
10 9
10 1
11 7
11 4
11 2
12 9
12 11
12 2
12 8
13 7
13 10
13 3
13 12
14 11
14 5
14 9
14 12
14 3
14 7
15 9
15 8
15 6
15 7
15 5
16 4
16 14
16 10
16 15
16 2
17 4
17 16
17 1
17 14
17 13
17 12
17 8
18 4
18 14
18 3
18 10
18 2
19 10
19 13
19 16
19 8
19 17
19 4
19 15
19 18
19 5
19 7
19 11
20 3
20 16
20 14
20 15
20 2
20 17
20 4
21 17
21 9
21 2
21 3
21 16
22 15
22 13
22 16
22 8
22 21
22 4
